molecule {
  0 1
  O
  H 1 0.9
  H 1 0.9 2 104.5
}

set basis sto-3g

psi4.plugin('./minimal.so')

