molecule {
  symmetry c1
  0 1
  O 
  H 1 0.96
  H 1 0.96 2 104.5
}

# Save Psi file PSIF_CHKPT = 3
psi4_io.set_specific_path(32,'.')
psi4_io.set_specific_retention(32,True)

set basis sto-3g
set reference rhf
energy('scf')
