molecule {
  symmetry c1
  0 1
  O 
  H 1 0.96
  H 1 0.96 2 104.5
}

# Save PSIFILES:
# PSIF_CHKPT = 32
psi4_io.set_specific_path(32,'.')
psi4_io.set_specific_retention(32,True)
# PSIF_OEI   = 35
psi4_io.set_specific_path(35,'.')
psi4_io.set_specific_retention(35,True)
# PSIF_TEI   = 33
psi4_io.set_specific_path(33,'.')
psi4_io.set_specific_retention(33,True)

set basis sto-3g
set reference rhf
set scf_type pk
energy('scf')
energy('conv-mp2')
